unknown
(model
; cardinality of BoundSet is 2
(declare-sort BoundSet 0)
; rep: @uc_BoundSet_0
; rep: @uc_BoundSet_1
; cardinality of UnboundSet is 1
(declare-sort UnboundSet 0)
(declare-fun groundTerm_3 () UnboundSet)
(define-fun IsLowAsSuggested ((BOUND_VARIABLE_373 BoundSet) (BOUND_VARIABLE_374 BoundSet)) Bool true)
(define-fun RunTooHot ((BOUND_VARIABLE_381 BoundSet)) Bool false)
(define-fun NeedToBeRevised ((BOUND_VARIABLE_381 BoundSet)) Bool false)
)
sat
(model
; cardinality of BoundSet is 1
(declare-sort BoundSet 0)
; rep: @uc_BoundSet_0
; cardinality of UnboundSet is 1
(declare-sort UnboundSet 0)
(declare-fun groundTerm_5 () UnboundSet)
(define-fun IsLowAsSuggested ((BOUND_VARIABLE_412 BoundSet) (BOUND_VARIABLE_413 BoundSet)) Bool true)
(define-fun RunTooHot ((BOUND_VARIABLE_417 BoundSet)) Bool false)
(define-fun NeedToBeRevised ((BOUND_VARIABLE_417 BoundSet)) Bool true)
)
